%BLOCK LATTICE_CART
      16.395185930250001      -9.465765010246003       0.000000000000000
       0.000000000000000      18.931530020490005       0.000000000000000
       0.000000000000000       0.000000000000000       9.999213039981003
%ENDBLOCK LATTICE_CART

%BLOCK POSITIONS_FRAC
  C   0.0756034347004261   0.0756034355668346   0.5000000004346838
  C   0.1496332166229110   0.1496332194727910   0.5000000000710549
  C   0.2145289813410100   0.2145289823390270   0.4999999994942099
  C   0.4243965644332829  -0.0000000008663755   0.5000000004346838
  C   0.3503667805273500  -0.0000000028498314   0.5000000000710549
  C   0.2854710176611359  -0.0000000009979597   0.4999999994942099
  C   0.0000000008664129   0.4243965652996550   0.5000000004346838
  C   0.0000000028498609   0.3503667833771539   0.5000000000710549
  C   0.0000000009979759   0.2854710186590470   0.4999999994942099
  C   0.4243965644332829   0.4243965652997039   0.5000000004346838
  C   0.3503667805273500   0.3503667833772179   0.5000000000710549
  C   0.2854710176611359   0.2854710186591249   0.4999999994942099
  C   0.0000000008664129   0.0756034355668107   0.5000000004346838
  C   0.0000000028498609   0.1496332194727590   0.5000000000710549
  C   0.0000000009979759   0.2145289823389290   0.4999999994942099
  C   0.0756034347004261  -0.0000000008664004   0.5000000004346838
  C   0.1496332166229110  -0.0000000028498642   0.5000000000710549
  C   0.2145289813410100  -0.0000000009979935   0.4999999994942099
  C   0.5756034347004869   0.0756034355668652   0.5000000004346838
  C   0.6496332166229720   0.1496332194728220   0.5000000000710549
  C   0.7145289813411320   0.2145289823390879   0.4999999994942099
  C   0.9243965644334050  -0.0000000008663145   0.5000000004346838
  C   0.8503667805277159  -0.0000000028496484   0.5000000000710549
  C   0.7854710176613189  -0.0000000009978683   0.4999999994942099
  C   0.5000000008665350   0.4243965652997158   0.5000000004346838
  C   0.5000000028499829   0.3503667833772149   0.5000000000710549
  C   0.5000000009980981   0.2854710186591610   0.4999999994942099
  C   0.9243965644334050   0.4243965652997650   0.5000000004346838
  C   0.8503667805277159   0.3503667833774009   0.5000000000710549
  C   0.7854710176613189   0.2854710186592169   0.4999999994942099
  C   0.5000000008665350   0.0756034355668719   0.5000000004346838
  C   0.5000000028499829   0.1496332194728200   0.5000000000710549
  C   0.5000000009980981   0.2145289823389900   0.4999999994942099
  C   0.5756034347004869  -0.0000000008663701   0.5000000004346838
  C   0.6496332166229720  -0.0000000028498335   0.5000000000710549
  C   0.7145289813411320  -0.0000000009978797   0.4999999994942099
  C   0.0756034347004261   0.5756034355668870   0.5000000004346838
  C   0.1496332166229110   0.6496332194729491   0.5000000000710549
  C   0.2145289813410100   0.7145289823390268   0.4999999994942099
  C   0.4243965644332829   0.4999999991336769   0.5000000004346838
  C   0.3503667805273500   0.4999999971502209   0.5000000000710549
  C   0.2854710176611359   0.4999999990020929   0.4999999994942099
  C   0.0000000008664129   0.9243965652998128   0.5000000004346838
  C   0.0000000028498609   0.8503667833773659   0.5000000000710549
  C   0.0000000009979759   0.7854710186589409   0.4999999994942099
  C   0.4243965644332829   0.9243965652998087   0.5000000004346838
  C   0.3503667800000000   0.8503667799999549   0.4999999999999499
  C   0.2854710176611359   0.7854710186589140   0.4999999994942099
  C   0.0000000008664129   0.5756034355668639   0.5000000004346838
  C   0.0000000028498609   0.6496332194727590   0.5000000000710549
  C   0.0000000009979759   0.7145289823387699   0.4999999994942099
  C   0.0756034347004261   0.4999999991336520   0.5000000004346838
  C   0.1496332166229110   0.4999999971501880   0.5000000000710549
  C   0.2145289813410100   0.4999999990020589   0.4999999994942099
  C   0.5756034347004869   0.5756034355669178   0.5000000004346838
  C   0.6496332166229720   0.6496332194728740   0.5000000000710549
  C   0.7145289813411320   0.7145289823390879   0.4999999994942099
  C   0.9243965644334050   0.4999999991337379   0.5000000004346838
  C   0.8503667805277159   0.4999999971504039   0.5000000000710549
  C   0.7854710176613189   0.4999999990021839   0.4999999994942099
  C   0.5000000008665350   0.9243965652995038   0.5000000004346838
  C   0.5000000028499829   0.8503667833770569   0.5000000000710549
  C   0.5000000009980981   0.7854710186591600   0.4999999994942099
  C   0.9243965644334050   0.9243965652998170   0.5000000004346838
  C   0.8503667805277159   0.8503667833774538   0.5000000000710549
  C   0.7854710176613189   0.7854710186592688   0.4999999994942099
  C   0.5000000008665350   0.5756034355669248   0.5000000004346838
  C   0.5000000028499829   0.6496332194728729   0.5000000000710549
  C   0.5000000009980981   0.7145289823390429   0.4999999994942099
  C   0.5756034347004869   0.4999999991336819   0.5000000004346838
  C   0.6496332166229720   0.4999999971502190   0.5000000000710549
  C   0.7145289813411320   0.4999999990021199   0.4999999994942099
 Sc   0.3945816108721220   0.6057586684656149   0.5001896946183579
 Sc   0.2110784796379700   0.6055047669517060   0.5001101256262959
 Sc   0.3945996117215340   0.7888500368489398   0.5001101256262959
%ENDBLOCK POSITIONS_FRAC

%BLOCK KPOINTS_LIST
   0.0000000000000000   0.0000000000000000   0.0000000000000000       1.000000000000000
%ENDBLOCK KPOINTS_LIST

FIX_ALL_CELL : true

FIX_COM : false
%BLOCK IONIC_CONSTRAINTS
%ENDBLOCK IONIC_CONSTRAINTS

%BLOCK EXTERNAL_EFIELD
    0.0000000000     0.0000000000     0.0000000000 
%ENDBLOCK EXTERNAL_EFIELD

%BLOCK EXTERNAL_PRESSURE
    0.0000000000    0.0000000000    0.0000000000
                    0.0000000000    0.0000000000
                                    0.0000000000
%ENDBLOCK EXTERNAL_PRESSURE

%BLOCK SPECIES_MASS
       C     12.0109996796
      Sc     44.9560012817
%ENDBLOCK SPECIES_MASS

%BLOCK SPECIES_POT
       C  C_00PBE.usp
      Sc  Sc_00PBE.usp
%ENDBLOCK SPECIES_POT

%BLOCK SPECIES_LCAO_STATES
       C         2
      Sc         5
%ENDBLOCK SPECIES_LCAO_STATES

